47309.85,58.44,70.86
43889.45,62.99,76.39
48925.89,56.51,68.52
45292.02,61.04,74.02
48382.88,57.14,69.29
48828.57,56.62,68.66
54359.67,50.86,61.68
56093.0,49.29,59.77
48463.8,57.04,69.18
47614.82,58.06,70.41
50068.69,55.22,66.96
43660.59,63.32,76.79
47803.79,57.83,70.13
43824.43,63.08,76.5
42183.4,65.54,79.48
43628.96,63.37,76.84
43344.61,63.78,77.35
48881.9,56.56,68.59
54225.2,50.98,61.83
45307.29,61.02,74.0
